NAME : g05
TYPE : CVRP
DIMENSION : 201
VEHICLES : 5
CAPACITY : 900
DISTANCE : 1800
EDGE_WEIGHT_TYPE : EXACT_2D
NODE_COORD_SECTION
1 0.0000 0.0000
2 30.0000 0.0000
3 28.5317 9.2705
4 24.2705 17.6336
5 17.6336 24.2705
6 9.2705 28.5317
7 0.0000 30.0000
8 -9.2705 28.5317
9 -17.6336 24.2705
10 -24.2705 17.6336
11 -28.5317 9.2705
12 -30.0000 0.0000
13 -28.5317 -9.2705
14 -24.2705 -17.6336
15 -17.6336 -24.2705
16 -9.2705 -28.5317
17 0.0000 -30.0000
18 9.2705 -28.5317
19 17.6336 -24.2705
20 24.2705 -17.6336
21 28.5317 -9.2705
22 60.0000 0.0000
23 57.0634 18.5410
24 48.5410 35.2671
25 35.2671 48.5410
26 18.5410 57.0634
27 0.0000 60.0000
28 -18.5410 57.0634
29 -35.2671 48.5410
30 -48.5410 35.2671
31 -57.0634 18.5410
32 -60.0000 0.0000
33 -57.0634 -18.5410
34 -48.5410 -35.2671
35 -35.2671 -48.5410
36 -18.5410 -57.0634
37 0.0000 -60.0000
38 18.5410 -57.0634
39 35.2671 -48.5410
40 48.5410 -35.2671
41 57.0634 -18.5410
42 90.0000 0.0000
43 85.5951 27.8115
44 72.8115 52.9007
45 52.9007 72.8115
46 27.8115 85.5951
47 0.0000 90.0000
48 -27.8115 85.5951
49 -52.9007 72.8115
50 -72.8115 52.9007
51 -85.5951 27.8115
52 -90.0000 0.0000
53 -85.5951 -27.8115
54 -72.8115 -52.9007
55 -52.9007 -72.8115
56 -27.8115 -85.5951
57 0.0000 -90.0000
58 27.8115 -85.5951
59 52.9007 -72.8115
60 72.8115 -52.9007
61 85.5951 -27.8115
62 120.0000 0.0000
63 114.1268 37.0820
64 97.0820 70.5342
65 70.5342 97.0820
66 37.0820 114.1268
67 0.0000 120.0000
68 -37.0820 114.1268
69 -70.5342 97.0820
70 -97.0820 70.5342
71 -114.1268 37.0820
72 -120.0000 0.0000
73 -114.1268 -37.0821
74 -97.0820 -70.5342
75 -70.5342 -97.0820
76 -37.0820 -114.1268
77 0.0000 -120.0000
78 37.0821 -114.1268
79 70.5342 -97.0820
80 97.0821 -70.5342
81 114.1268 -37.0820
82 150.0000 0.0000
83 142.6585 46.3526
84 121.3525 88.1678
85 88.1678 121.3526
86 46.3525 142.6585
87 0.0000 150.0000
88 -46.3526 142.6585
89 -88.1678 121.3525
90 -121.3526 88.1678
91 -142.6585 46.3525
92 -150.0000 0.0000
93 -142.6585 -46.3526
94 -121.3525 -88.1678
95 -88.1678 -121.3526
96 -46.3525 -142.6585
97 0.0000 -150.0000
98 46.3526 -142.6585
99 88.1678 -121.3525
100 121.3526 -88.1678
101 142.6585 -46.3525
102 180.0000 0.0000
103 171.1902 55.6231
104 145.6231 105.8013
105 105.8013 145.6231
106 55.6231 171.1902
107 0.0000 180.0000
108 -55.6231 171.1902
109 -105.8014 145.6230
110 -145.6231 105.8013
111 -171.1902 55.6230
112 -180.0000 0.0000
113 -171.1902 -55.6231
114 -145.6230 -105.8014
115 -105.8013 -145.6231
116 -55.6230 -171.1902
117 0.0000 -180.0000
118 55.6231 -171.1902
119 105.8014 -145.6230
120 145.6231 -105.8013
121 171.1902 -55.6230
122 210.0000 0.0000
123 199.7219 64.8936
124 169.8936 123.4349
125 123.4349 169.8936
126 64.8936 199.7219
127 0.0000 210.0000
128 -64.8936 199.7219
129 -123.4349 169.8936
130 -169.8936 123.4349
131 -199.7219 64.8936
132 -210.0000 0.0000
133 -199.7219 -64.8936
134 -169.8936 -123.4349
135 -123.4349 -169.8936
136 -64.8935 -199.7219
137 0.0000 -210.0000
138 64.8936 -199.7219
139 123.4349 -169.8936
140 169.8936 -123.4349
141 199.7219 -64.8935
142 240.0000 0.0000
143 228.2536 74.1641
144 194.1641 141.0685
145 141.0685 194.1641
146 74.1641 228.2536
147 0.0000 240.0000
148 -74.1641 228.2536
149 -141.0685 194.1641
150 -194.1641 141.0685
151 -228.2536 74.1641
152 -240.0000 0.0000
153 -228.2536 -74.1641
154 -194.1641 -141.0685
155 -141.0684 -194.1641
156 -74.1640 -228.2536
157 0.0000 -240.0000
158 74.1641 -228.2536
159 141.0685 -194.1641
160 194.1641 -141.0684
161 228.2536 -74.1640
162 270.0000 0.0000
163 256.7852 83.4346
164 218.4346 158.7020
165 158.7020 218.4346
166 83.4346 256.7852
167 0.0000 270.0000
168 -83.4346 256.7852
169 -158.7020 218.4346
170 -218.4346 158.7020
171 -256.7853 83.4346
172 -270.0000 0.0000
173 -256.7852 -83.4346
174 -218.4346 -158.7020
175 -158.7020 -218.4346
176 -83.4346 -256.7853
177 0.0000 -270.0000
178 83.4346 -256.7852
179 158.7021 -218.4346
180 218.4346 -158.7020
181 256.7853 -83.4345
182 300.0000 0.0000
183 285.3170 92.7051
184 242.7051 176.3356
185 176.3356 242.7051
186 92.7051 285.3170
187 0.0000 300.0000
188 -92.7051 285.3170
189 -176.3356 242.7051
190 -242.7051 176.3356
191 -285.3170 92.7051
192 -300.0000 0.0000
193 -285.3170 -92.7051
194 -242.7051 -176.3356
195 -176.3355 -242.7051
196 -92.7051 -285.3170
197 0.0000 -300.0000
198 92.7051 -285.3170
199 176.3356 -242.7051
200 242.7051 -176.3355
201 285.3170 -92.7050
DEMAND_SECTION
1 0
2 10
3 30
4 30
5 10
6 10
7 30
8 30
9 10
10 10
11 30
12 30
13 10
14 10
15 30
16 30
17 10
18 10
19 30
20 30
21 10
22 10
23 30
24 30
25 10
26 10
27 30
28 30
29 10
30 10
31 30
32 30
33 10
34 10
35 30
36 30
37 10
38 10
39 30
40 30
41 10
42 10
43 30
44 30
45 10
46 10
47 30
48 30
49 10
50 10
51 30
52 30
53 10
54 10
55 30
56 30
57 10
58 10
59 30
60 30
61 10
62 10
63 30
64 30
65 10
66 10
67 30
68 30
69 10
70 10
71 30
72 30
73 10
74 10
75 30
76 30
77 10
78 10
79 30
80 30
81 10
82 10
83 30
84 30
85 10
86 10
87 30
88 30
89 10
90 10
91 30
92 30
93 10
94 10
95 30
96 30
97 10
98 10
99 30
100 30
101 10
102 10
103 30
104 30
105 10
106 10
107 30
108 30
109 10
110 10
111 30
112 30
113 10
114 10
115 30
116 30
117 10
118 10
119 30
120 30
121 10
122 10
123 30
124 30
125 10
126 10
127 30
128 30
129 10
130 10
131 30
132 30
133 10
134 10
135 30
136 30
137 10
138 10
139 30
140 30
141 10
142 10
143 30
144 30
145 10
146 10
147 30
148 30
149 10
150 10
151 30
152 30
153 10
154 10
155 30
156 30
157 10
158 10
159 30
160 30
161 10
162 10
163 30
164 30
165 10
166 10
167 30
168 30
169 10
170 10
171 30
172 30
173 10
174 10
175 30
176 30
177 10
178 10
179 30
180 30
181 10
182 10
183 30
184 30
185 10
186 10
187 30
188 30
189 10
190 10
191 30
192 30
193 10
194 10
195 30
196 30
197 10
198 10
199 30
200 30
201 10
DEPOT_SECTION
1 
-1
EOF
